p edge 220 660
e 1 29
e 1 111
e 1 201
e 2 54
e 2 71
e 2 142
e 3 157
e 3 187
e 3 190
e 4 6
e 4 92
e 4 142
e 5 20
e 5 91
e 5 218
e 6 25
e 6 134
e 6 149
e 7 163
e 7 178
e 7 182
e 8 21
e 8 109
e 8 187
e 9 40
e 9 202
e 9 206
e 10 67
e 10 181
e 10 202
e 11 15
e 11 93
e 11 152
e 12 154
e 12 163
e 12 187
e 13 33
e 13 164
e 13 180
e 14 3
e 14 86
e 14 164
e 15 90
e 15 153
e 15 160
e 16 43
e 16 70
e 16 186
e 17 19
e 17 72
e 17 217
e 18 9
e 18 114
e 18 194
e 19 140
e 19 150
e 19 187
e 20 14
e 20 49
e 20 159
e 21 14
e 21 94
e 21 184
e 22 73
e 22 141
e 22 183
e 23 4
e 23 88
e 23 207
e 24 40
e 24 188
e 24 189
e 25 6
e 25 43
e 25 152
e 26 102
e 26 106
e 26 210
e 27 15
e 27 56
e 27 196
e 28 125
e 28 176
e 28 200
e 29 71
e 29 119
e 29 220
e 30 3
e 30 65
e 30 197
e 31 30
e 31 209
e 31 210
e 32 46
e 32 105
e 32 214
e 33 91
e 33 200
e 33 204
e 34 2
e 34 71
e 34 120
e 35 57
e 35 78
e 35 167
e 36 5
e 36 172
e 36 210
e 37 171
e 37 173
e 37 192
e 38 13
e 38 25
e 38 178
e 39 108
e 39 148
e 39 216
e 40 82
e 40 119
e 40 145
e 41 147
e 41 178
e 41 212
e 42 71
e 42 102
e 42 162
e 43 86
e 43 170
e 43 178
e 44 141
e 44 147
e 44 156
e 45 76
e 45 116
e 45 137
e 46 111
e 46 159
e 46 218
e 47 76
e 47 99
e 47 136
e 48 1
e 48 78
e 48 211
e 49 158
e 49 164
e 49 212
e 50 146
e 50 192
e 50 197
e 51 16
e 51 90
e 51 187
e 52 61
e 52 97
e 52 186
e 53 11
e 53 71
e 53 121
e 54 18
e 54 22
e 54 110
e 55 94
e 55 116
e 55 199
e 56 144
e 56 191
e 56 195
e 57 45
e 57 194
e 57 204
e 58 52
e 58 68
e 58 69
e 59 104
e 59 140
e 59 151
e 60 4
e 60 31
e 60 159
e 61 56
e 61 94
e 61 137
e 62 86
e 62 96
e 62 156
e 63 57
e 63 146
e 63 161
e 64 30
e 64 164
e 64 188
e 65 69
e 65 72
e 65 132
e 66 90
e 66 122
e 66 175
e 67 40
e 67 52
e 67 190
e 68 150
e 68 192
e 68 215
e 69 99
e 69 104
e 69 114
e 70 13
e 70 152
e 70 155
e 71 33
e 71 124
e 71 204
e 72 58
e 72 107
e 72 109
e 73 63
e 73 109
e 73 125
e 74 39
e 74 107
e 74 167
e 75 43
e 75 44
e 75 62
e 76 31
e 76 197
e 76 218
e 77 64
e 77 136
e 77 205
e 78 9
e 78 117
e 78 174
e 79 141
e 79 179
e 79 212
e 80 168
e 80 190
e 80 209
e 81 145
e 81 182
e 81 215
e 82 78
e 82 117
e 82 126
e 83 128
e 83 159
e 83 166
e 84 88
e 84 160
e 84 163
e 85 33
e 85 48
e 85 189
e 86 93
e 86 94
e 86 123
e 87 16
e 87 108
e 87 151
e 88 56
e 88 131
e 88 157
e 89 4
e 89 18
e 89 207
e 90 30
e 90 87
e 90 94
e 91 3
e 91 79
e 91 212
e 92 10
e 92 59
e 92 213
e 93 66
e 93 109
e 93 218
e 94 67
e 94 139
e 94 207
e 95 7
e 95 32
e 95 37
e 96 39
e 96 127
e 96 178
e 97 113
e 97 127
e 97 137
e 98 20
e 98 74
e 98 169
e 99 7
e 99 94
e 99 97
e 100 58
e 100 182
e 100 196
e 101 89
e 101 126
e 101 208
e 102 73
e 102 135
e 102 220
e 103 62
e 103 70
e 103 198
e 104 57
e 104 128
e 104 214
e 105 1
e 105 53
e 105 79
e 106 18
e 106 70
e 106 201
e 107 151
e 107 155
e 107 162
e 108 129
e 108 153
e 108 185
e 109 127
e 109 138
e 109 202
e 110 3
e 110 13
e 110 130
e 111 61
e 111 95
e 111 103
e 112 139
e 112 191
e 112 207
e 113 12
e 113 196
e 113 197
e 114 136
e 114 158
e 114 191
e 115 52
e 115 69
e 115 118
e 116 43
e 116 178
e 116 194
e 117 39
e 117 42
e 117 190
e 118 40
e 118 64
e 118 198
e 119 103
e 119 105
e 119 131
e 120 28
e 120 80
e 120 114
e 121 38
e 121 162
e 121 198
e 122 115
e 122 192
e 122 219
e 123 94
e 123 139
e 123 175
e 124 56
e 124 100
e 124 121
e 125 14
e 125 58
e 125 117
e 126 60
e 126 65
e 126 108
e 127 35
e 127 51
e 127 156
e 128 27
e 128 27
e 128 120
e 129 116
e 129 163
e 129 216
e 130 11
e 130 32
e 130 94
e 131 75
e 131 136
e 131 167
e 132 26
e 132 137
e 132 137
e 133 86
e 133 109
e 133 114
e 134 38
e 134 144
e 134 177
e 135 23
e 135 136
e 135 219
e 136 98
e 136 188
e 136 189
e 137 15
e 137 65
e 137 113
e 138 32
e 138 91
e 138 95
e 139 84
e 139 122
e 139 147
e 140 81
e 140 84
e 140 135
e 141 59
e 141 136
e 141 148
e 142 34
e 142 174
e 142 186
e 143 115
e 143 132
e 143 181
e 144 57
e 144 145
e 144 175
e 145 28
e 145 170
e 145 213
e 146 2
e 146 194
e 146 219
e 147 18
e 147 83
e 147 135
e 148 25
e 148 43
e 148 58
e 149 28
e 149 181
e 149 219
e 150 9
e 150 133
e 150 179
e 151 66
e 151 101
e 151 149
e 152 35
e 152 146
e 152 179
e 153 48
e 153 146
e 153 168
e 154 124
e 154 142
e 154 169
e 155 5
e 155 26
e 155 158
e 156 15
e 156 42
e 156 162
e 157 74
e 157 84
e 157 120
e 158 8
e 158 59
e 158 198
e 159 32
e 159 121
e 159 135
e 160 77
e 160 186
e 160 211
e 161 17
e 161 183
e 161 185
e 162 34
e 162 116
e 162 176
e 163 99
e 163 115
e 163 158
e 164 59
e 164 91
e 164 203
e 165 4
e 165 88
e 165 196
e 166 15
e 166 154
e 166 169
e 167 26
e 167 36
e 167 159
e 168 54
e 168 83
e 168 112
e 169 110
e 169 185
e 169 194
e 170 68
e 170 183
e 170 219
e 171 121
e 171 184
e 171 197
e 172 92
e 172 112
e 172 204
e 173 19
e 173 83
e 173 97
e 174 17
e 174 60
e 174 114
e 175 79
e 175 101
e 175 149
e 176 43
e 176 50
e 176 165
e 177 43
e 177 82
e 177 165
e 178 142
e 178 195
e 178 198
e 179 1
e 179 35
e 179 143
e 180 122
e 180 129
e 180 132
e 181 13
e 181 20
e 181 156
e 182 44
e 182 55
e 182 191
e 183 38
e 183 98
e 183 133
e 184 107
e 184 163
e 184 206
e 185 100
e 185 200
e 185 214
e 186 41
e 186 94
e 186 114
e 187 18
e 187 77
e 187 185
e 188 98
e 188 105
e 188 211
e 189 72
e 189 199
e 189 211
e 190 96
e 190 128
e 190 136
e 191 51
e 191 69
e 191 77
e 192 44
e 192 72
e 192 73
e 193 24
e 193 173
e 193 202
e 194 117
e 194 173
e 194 207
e 195 28
e 195 193
e 195 202
e 196 27
e 196 109
e 196 137
e 197 40
e 197 95
e 197 140
e 198 10
e 198 39
e 198 47
e 199 113
e 199 176
e 199 193
e 200 104
e 200 161
e 200 186
e 201 56
e 201 69
e 201 197
e 202 12
e 202 50
e 202 64
e 203 41
e 203 61
e 203 94
e 204 72
e 204 100
e 204 202
e 205 31
e 205 46
e 205 195
e 206 31
e 206 172
e 206 199
e 207 51
e 207 128
e 207 203
e 208 74
e 208 152
e 208 155
e 209 32
e 209 153
e 209 190
e 210 142
e 210 145
e 210 165
e 211 150
e 211 165
e 211 182
e 212 13
e 212 30
e 212 121
e 213 36
e 213 51
e 213 56
e 214 62
e 214 85
e 214 180
e 215 159
e 215 166
e 215 177
e 216 37
e 216 78
e 216 214
e 217 21
e 217 55
e 217 142
e 218 15
e 218 99
e 218 209
e 219 61
e 219 88
e 219 208
e 220 87
e 220 91
e 220 210
